c Sudoku solution
p cnf 729 0
158 0
163 0
215 0
228 0
233 0
241 0
252 0
276 0
314 0
331 0
369 0
466 0
524 0
579 0
616 0
632 0
673 0
688 0
713 0
423 0
757 0
778 0
398 0
383 0
781 0
839 0
856 0
355 0
918 0
921 0
861 0
848 0
893 0
438 0
568 0
997 0
137 0
535 0
936 0
734 0
796 0
989 0
749 0
586 0
299 0
377 0
284 0
144 0
267 0
346 0
126 0
322 0
119 0
812 0
725 0
827 0
762 0
972 0
629 0
459 0
647 0
517 0
411 0
171 0
487 0
182 0
195 0
885 0
874 0
475 0
494 0
592 0
691 0
442 0
543 0
551 0
654 0
665 0
945 0
953 0
964 0
